c "803591.clq"
p edge 200 784
e 1 5
e 1 6
e 1 7
e 1 9
e 1 10
e 1 11
e 1 12
e 1 21
e 1 53
e 1 85
e 1 96
e 1 103
e 1 143
e 1 177
e 2 5
e 2 6
e 2 7
e 2 8
e 2 10
e 2 11
e 2 14
e 2 15
e 2 17
e 2 18
e 2 20
e 2 22
e 2 23
e 2 24
e 2 25
e 2 28
e 2 31
e 2 33
e 2 35
e 2 36
e 2 39
e 2 51
e 2 58
e 2 59
e 2 61
e 2 64
e 2 66
e 2 75
e 2 84
e 2 94
e 2 99
e 2 100
e 2 102
e 2 111
e 2 115
e 2 124
e 2 128
e 2 129
e 2 131
e 2 132
e 2 138
e 2 140
e 2 142
e 2 157
e 2 163
e 2 165
e 2 166
e 2 181
e 2 183
e 2 192
e 3 5
e 3 6
e 3 7
e 3 19
e 3 25
e 3 30
e 3 37
e 3 43
e 3 52
e 3 59
e 3 128
e 3 130
e 3 135
e 3 162
e 4 5
e 4 8
e 4 15
e 4 20
e 4 44
e 4 54
e 4 58
e 4 69
e 4 70
e 4 131
e 4 198
e 5 6
e 5 7
e 5 8
e 5 9
e 5 12
e 5 13
e 5 14
e 5 15
e 5 18
e 5 19
e 5 26
e 5 27
e 5 28
e 5 30
e 5 32
e 5 34
e 5 37
e 5 40
e 5 43
e 5 45
e 5 46
e 5 47
e 5 48
e 5 57
e 5 62
e 5 67
e 5 68
e 5 70
e 5 72
e 5 73
e 5 74
e 5 76
e 5 83
e 5 86
e 5 98
e 5 105
e 5 110
e 5 113
e 5 119
e 5 130
e 5 133
e 5 155
e 5 158
e 5 185
e 5 189
e 5 195
e 6 8
e 6 9
e 6 11
e 6 13
e 6 14
e 6 24
e 6 31
e 6 33
e 6 34
e 6 40
e 6 53
e 6 63
e 6 66
e 6 88
e 6 89
e 6 101
e 6 106
e 6 131
e 6 133
e 6 134
e 6 142
e 6 148
e 6 160
e 6 163
e 6 189
e 7 9
e 7 10
e 7 11
e 7 12
e 7 13
e 7 18
e 7 23
e 7 24
e 7 26
e 7 32
e 7 35
e 7 36
e 7 50
e 7 53
e 7 61
e 7 71
e 7 73
e 7 81
e 7 108
e 7 116
e 7 135
e 7 146
e 7 153
e 7 161
e 8 10
e 8 12
e 8 14
e 8 16
e 8 17
e 8 20
e 8 21
e 8 22
e 8 27
e 8 28
e 8 37
e 8 46
e 8 49
e 8 50
e 8 55
e 8 57
e 8 60
e 8 79
e 8 83
e 8 87
e 8 96
e 8 97
e 8 102
e 8 127
e 8 133
e 8 148
e 8 149
e 8 156
e 8 168
e 8 181
e 8 186
e 8 187
e 8 192
e 8 193
e 8 200
e 9 16
e 9 90
e 9 103
e 9 115
e 9 141
e 9 173
e 10 31
e 10 33
e 10 38
e 10 72
e 10 132
e 10 144
e 10 177
e 10 197
e 11 13
e 11 16
e 11 18
e 11 45
e 11 69
e 11 70
e 11 77
e 11 83
e 11 85
e 11 90
e 11 92
e 11 101
e 11 150
e 11 151
e 11 152
e 11 166
e 12 17
e 12 20
e 12 86
e 12 88
e 12 91
e 12 109
e 13 22
e 13 23
e 13 32
e 13 44
e 13 45
e 13 54
e 13 82
e 13 96
e 13 106
e 13 128
e 13 140
e 13 147
e 13 149
e 13 151
e 13 164
e 13 174
e 13 176
e 14 15
e 14 16
e 14 27
e 14 28
e 14 29
e 14 33
e 14 35
e 14 38
e 14 39
e 14 44
e 14 49
e 14 51
e 14 59
e 14 65
e 14 72
e 14 74
e 14 81
e 14 82
e 14 91
e 14 93
e 14 97
e 14 105
e 14 114
e 14 129
e 14 136
e 14 147
e 14 153
e 14 160
e 14 173
e 14 182
e 14 185
e 15 17
e 15 19
e 15 30
e 15 32
e 15 48
e 15 49
e 15 51
e 15 52
e 15 84
e 15 87
e 15 109
e 15 110
e 15 123
e 15 137
e 15 144
e 15 146
e 15 148
e 15 154
e 15 162
e 15 168
e 15 170
e 15 179
e 16 21
e 16 26
e 16 38
e 16 40
e 16 41
e 16 89
e 16 107
e 16 124
e 16 149
e 16 167
e 17 29
e 17 42
e 17 62
e 17 112
e 17 120
e 18 19
e 18 30
e 18 42
e 18 45
e 18 52
e 18 55
e 18 57
e 18 58
e 18 72
e 18 79
e 18 105
e 18 155
e 18 157
e 18 158
e 18 190
e 19 21
e 19 25
e 19 47
e 19 76
e 19 78
e 19 79
e 19 87
e 19 123
e 19 154
e 19 174
e 19 181
e 20 22
e 20 24
e 20 29
e 20 81
e 20 100
e 20 146
e 21 23
e 21 25
e 21 39
e 21 56
e 22 65
e 22 138
e 22 152
e 23 39
e 23 43
e 23 51
e 23 64
e 23 95
e 23 175
e 24 78
e 24 80
e 24 102
e 24 107
e 25 26
e 25 27
e 25 29
e 25 36
e 25 40
e 25 41
e 25 46
e 25 56
e 25 60
e 25 62
e 25 68
e 25 104
e 25 130
e 25 142
e 25 150
e 25 166
e 25 176
e 25 182
e 25 190
e 25 198
e 25 200
e 26 67
e 26 113
e 26 181
e 27 31
e 27 44
e 27 54
e 27 70
e 27 84
e 27 122
e 27 183
e 28 63
e 28 73
e 28 104
e 28 108
e 28 185
e 29 35
e 29 42
e 29 43
e 29 48
e 29 61
e 29 86
e 29 138
e 30 34
e 30 38
e 30 41
e 30 42
e 30 47
e 30 54
e 30 74
e 30 77
e 30 92
e 30 94
e 30 98
e 30 113
e 30 117
e 30 119
e 30 134
e 30 135
e 30 140
e 30 154
e 30 156
e 30 159
e 30 162
e 30 179
e 32 34
e 32 124
e 32 168
e 32 196
e 33 47
e 33 48
e 33 56
e 33 65
e 33 104
e 33 110
e 33 125
e 33 160
e 33 183
e 33 184
e 34 37
e 34 67
e 34 77
e 35 36
e 35 46
e 35 55
e 35 78
e 35 111
e 35 119
e 35 142
e 35 152
e 35 184
e 36 71
e 36 74
e 36 83
e 36 85
e 36 89
e 36 95
e 36 116
e 36 145
e 36 157
e 36 175
e 36 195
e 37 66
e 37 90
e 37 92
e 37 118
e 37 126
e 37 145
e 37 164
e 37 188
e 37 192
e 38 41
e 38 49
e 38 80
e 38 125
e 38 126
e 38 155
e 38 169
e 39 53
e 39 56
e 39 80
e 39 97
e 39 98
e 39 134
e 39 135
e 39 187
e 40 55
e 41 108
e 41 144
e 41 173
e 42 64
e 42 76
e 42 89
e 43 60
e 43 75
e 43 111
e 43 114
e 43 186
e 44 63
e 44 101
e 44 120
e 44 153
e 44 170
e 44 179
e 44 187
e 45 50
e 45 73
e 45 88
e 45 132
e 45 145
e 45 165
e 46 50
e 46 71
e 46 82
e 46 93
e 46 137
e 46 143
e 46 172
e 46 194
e 47 57
e 47 58
e 47 88
e 47 90
e 47 93
e 47 106
e 47 136
e 47 154
e 48 65
e 48 191
e 49 182
e 49 194
e 50 137
e 51 52
e 51 63
e 51 117
e 51 185
e 51 197
e 52 69
e 52 99
e 52 106
e 52 116
e 52 158
e 52 170
e 52 180
e 53 60
e 53 68
e 53 193
e 54 76
e 54 199
e 55 59
e 55 64
e 55 161
e 55 171
e 55 176
e 56 121
e 56 172
e 56 195
e 57 66
e 57 80
e 57 91
e 57 100
e 57 122
e 57 164
e 58 67
e 58 75
e 58 81
e 58 92
e 58 111
e 58 122
e 58 141
e 58 146
e 58 167
e 58 169
e 58 171
e 58 175
e 58 189
e 58 191
e 59 62
e 59 136
e 59 168
e 59 191
e 60 61
e 60 98
e 60 103
e 60 118
e 60 153
e 61 71
e 61 150
e 61 190
e 62 132
e 62 164
e 63 114
e 63 138
e 63 161
e 63 174
e 63 187
e 64 85
e 64 109
e 64 121
e 64 124
e 64 136
e 64 165
e 65 68
e 65 86
e 66 75
e 66 95
e 67 69
e 67 84
e 67 99
e 67 112
e 67 200
e 68 117
e 68 139
e 68 184
e 69 157
e 69 167
e 70 78
e 70 159
e 71 77
e 71 94
e 72 93
e 72 137
e 74 110
e 74 127
e 75 96
e 75 99
e 75 105
e 75 125
e 75 128
e 76 79
e 76 100
e 76 116
e 76 123
e 76 130
e 76 199
e 78 87
e 78 95
e 79 94
e 79 103
e 79 112
e 79 120
e 79 126
e 79 152
e 79 183
e 80 82
e 80 178
e 80 197
e 81 91
e 81 139
e 81 147
e 81 161
e 83 186
e 83 193
e 84 119
e 84 165
e 84 171
e 85 107
e 85 118
e 85 127
e 88 133
e 89 102
e 90 126
e 90 170
e 90 198
e 91 97
e 91 109
e 91 162
e 91 171
e 91 178
e 91 189
e 91 191
e 91 200
e 93 117
e 94 121
e 94 134
e 94 155
e 94 167
e 94 192
e 95 104
e 95 123
e 95 141
e 96 107
e 96 114
e 96 115
e 96 147
e 96 174
e 97 118
e 97 188
e 98 112
e 98 122
e 98 125
e 100 101
e 100 108
e 100 121
e 100 159
e 100 193
e 101 156
e 103 131
e 105 113
e 107 180
e 108 115
e 108 120
e 108 141
e 108 176
e 108 178
e 108 194
e 109 150
e 109 188
e 111 127
e 112 151
e 112 196
e 113 129
e 113 140
e 113 163
e 116 169
e 117 149
e 117 196
e 118 166
e 119 172
e 120 129
e 120 144
e 120 199
e 121 156
e 122 177
e 122 182
e 122 184
e 123 163
e 123 195
e 125 180
e 131 139
e 131 143
e 131 175
e 131 177
e 131 198
e 132 139
e 132 145
e 132 158
e 133 169
e 133 173
e 134 143
e 136 151
e 136 160
e 138 199
e 140 148
e 141 188
e 145 196
e 149 159
e 150 178
e 152 172
e 153 179
e 156 190
e 159 186
e 169 180
e 170 194
e 189 197
